
;this file is automatically generated: Fri Oct 30 17:04:00 CST 2020

;declarations generated

(declare-fun type_73414cea_6dc1_4414_8335_f6b5258089a9_Class49 ( Int) Bool)
(declare-fun type_73414cea_6dc1_4414_8335_f6b5258089a9_Class41 ( Int) Bool)
(declare-fun type_73414cea_6dc1_4414_8335_f6b5258089a9_Class42 ( Int) Bool)
(declare-fun type_73414cea_6dc1_4414_8335_f6b5258089a9_Class43 ( Int) Bool)
(declare-fun type_73414cea_6dc1_4414_8335_f6b5258089a9_Class44 ( Int) Bool)
(declare-fun type_73414cea_6dc1_4414_8335_f6b5258089a9_Class45 ( Int) Bool)
(declare-fun type_73414cea_6dc1_4414_8335_f6b5258089a9_Class46 ( Int) Bool)
(declare-fun type_73414cea_6dc1_4414_8335_f6b5258089a9_Class47 ( Int) Bool)
(declare-fun type_73414cea_6dc1_4414_8335_f6b5258089a9_Class48 ( Int) Bool)
(declare-fun type_73414cea_6dc1_4414_8335_f6b5258089a9_Class50 ( Int) Bool)
(declare-fun type_73414cea_6dc1_4414_8335_f6b5258089a9_Class51 ( Int) Bool)
(declare-fun type_73414cea_6dc1_4414_8335_f6b5258089a9_Class52 ( Int) Bool)
(declare-fun type_73414cea_6dc1_4414_8335_f6b5258089a9_Class53 ( Int) Bool)
(declare-fun type_73414cea_6dc1_4414_8335_f6b5258089a9_Class54 ( Int) Bool)
(declare-fun type_73414cea_6dc1_4414_8335_f6b5258089a9_Class55 ( Int) Bool)
(declare-fun oclExcludes ( Int Int) Bool)
(declare-fun type_73414cea_6dc1_4414_8335_f6b5258089a9_Class27 ( Int) Bool)
(declare-fun type_73414cea_6dc1_4414_8335_f6b5258089a9_Class7 ( Int) Bool)
(declare-fun type_73414cea_6dc1_4414_8335_f6b5258089a9_Class28 ( Int) Bool)
(declare-fun type_73414cea_6dc1_4414_8335_f6b5258089a9_Class8 ( Int) Bool)
(declare-fun type_73414cea_6dc1_4414_8335_f6b5258089a9_Class29 ( Int) Bool)
(declare-fun type_73414cea_6dc1_4414_8335_f6b5258089a9_Class9 ( Int) Bool)
(declare-fun type_73414cea_6dc1_4414_8335_f6b5258089a9_Class3 ( Int) Bool)
(declare-fun type_73414cea_6dc1_4414_8335_f6b5258089a9_Class4 ( Int) Bool)
(declare-fun type_73414cea_6dc1_4414_8335_f6b5258089a9_Class5 ( Int) Bool)
(declare-fun type_73414cea_6dc1_4414_8335_f6b5258089a9_Class6 ( Int) Bool)
(declare-fun type_73414cea_6dc1_4414_8335_f6b5258089a9_Class20 ( Int) Bool)
(declare-fun type_73414cea_6dc1_4414_8335_f6b5258089a9_Class21 ( Int) Bool)
(declare-fun type_73414cea_6dc1_4414_8335_f6b5258089a9_Class22 ( Int) Bool)
(declare-fun type_73414cea_6dc1_4414_8335_f6b5258089a9_Class23 ( Int) Bool)
(declare-fun type_73414cea_6dc1_4414_8335_f6b5258089a9_Class24 ( Int) Bool)
(declare-fun type_73414cea_6dc1_4414_8335_f6b5258089a9_Class25 ( Int) Bool)
(declare-fun type_73414cea_6dc1_4414_8335_f6b5258089a9_Class26 ( Int) Bool)
(declare-fun type_73414cea_6dc1_4414_8335_f6b5258089a9_Class0 ( Int) Bool)
(declare-fun type_73414cea_6dc1_4414_8335_f6b5258089a9_Class1 ( Int) Bool)
(declare-fun type_73414cea_6dc1_4414_8335_f6b5258089a9_Class2 ( Int) Bool)
(declare-fun type_73414cea_6dc1_4414_8335_f6b5258089a9_Class38 ( Int) Bool)
(declare-fun type_73414cea_6dc1_4414_8335_f6b5258089a9_Class39 ( Int) Bool)
(declare-fun type_73414cea_6dc1_4414_8335_f6b5258089a9_Class30 ( Int) Bool)
(declare-fun type_73414cea_6dc1_4414_8335_f6b5258089a9_Class31 ( Int) Bool)
(declare-fun type_73414cea_6dc1_4414_8335_f6b5258089a9_Class32 ( Int) Bool)
(declare-fun type_73414cea_6dc1_4414_8335_f6b5258089a9_Class33 ( Int) Bool)
(declare-fun type_73414cea_6dc1_4414_8335_f6b5258089a9_Class34 ( Int) Bool)
(declare-fun type_73414cea_6dc1_4414_8335_f6b5258089a9_Class35 ( Int) Bool)
(declare-fun type_73414cea_6dc1_4414_8335_f6b5258089a9_Class36 ( Int) Bool)
(declare-fun type_73414cea_6dc1_4414_8335_f6b5258089a9_Class37 ( Int) Bool)
(declare-fun type_73414cea_6dc1_4414_8335_f6b5258089a9_Class40 ( Int) Bool)
(declare-fun Cardinality ( Int) Int)
(declare-fun class18_Class18IntAttr4 ( Int) Int)
(declare-fun obj_38f4b03c_14cc_4b51_9b57_5733810818ac ( Int) Int)
(declare-fun type_73414cea_6dc1_4414_8335_f6b5258089a9_Class16 ( Int) Bool)
(declare-fun type_73414cea_6dc1_4414_8335_f6b5258089a9_Class17 ( Int) Bool)
(declare-fun type_73414cea_6dc1_4414_8335_f6b5258089a9_Class18 ( Int) Bool)
(declare-fun type_73414cea_6dc1_4414_8335_f6b5258089a9_Class19 ( Int) Bool)
(declare-fun type_73414cea_6dc1_4414_8335_f6b5258089a9_Class10 ( Int) Bool)
(declare-fun type_73414cea_6dc1_4414_8335_f6b5258089a9_Class11 ( Int) Bool)
(declare-fun type_73414cea_6dc1_4414_8335_f6b5258089a9_Class12 ( Int) Bool)
(declare-fun type_73414cea_6dc1_4414_8335_f6b5258089a9_Class13 ( Int) Bool)
(declare-fun type_73414cea_6dc1_4414_8335_f6b5258089a9_Class14 ( Int) Bool)
(declare-fun type_73414cea_6dc1_4414_8335_f6b5258089a9_Class15 ( Int) Bool)
(declare-fun oclSelect ( Int Bool) Int)
(declare-fun Enum0 ( Int) Int)
(declare-fun Enum1 ( Int) Int)
(declare-fun Enum2 ( Int) Int)
(declare-fun container_ ( Int) Int)
(declare-fun oclIncludes ( Int Int) Bool)
(declare-fun ObjAt ( Int Int) Int)

;formula(s) generated
(assert (! (forall ((v Int)) (=> (and (and (and ( type_73414cea_6dc1_4414_8335_f6b5258089a9_Class18 v )  ( type_73414cea_6dc1_4414_8335_f6b5258089a9_Class25 v ) ) ( type_73414cea_6dc1_4414_8335_f6b5258089a9_Class24 v ) ) ( type_73414cea_6dc1_4414_8335_f6b5258089a9_Class39 v ) ) (>= ( class18_Class18IntAttr4 ( obj_38f4b03c_14cc_4b51_9b57_5733810818ac v )  )  14))):named l0))
(assert (! (exists ((o Int)) ( type_73414cea_6dc1_4414_8335_f6b5258089a9_Class0 ( obj_38f4b03c_14cc_4b51_9b57_5733810818ac o )  ) ):named c0))
(assert (! (exists ((o Int)) (and (and (and (and (and ( type_73414cea_6dc1_4414_8335_f6b5258089a9_Class1 ( obj_38f4b03c_14cc_4b51_9b57_5733810818ac o )  )  ( type_73414cea_6dc1_4414_8335_f6b5258089a9_Class45 ( obj_38f4b03c_14cc_4b51_9b57_5733810818ac o )  ) ) ( type_73414cea_6dc1_4414_8335_f6b5258089a9_Class12 ( obj_38f4b03c_14cc_4b51_9b57_5733810818ac o )  ) ) ( type_73414cea_6dc1_4414_8335_f6b5258089a9_Class33 ( obj_38f4b03c_14cc_4b51_9b57_5733810818ac o )  ) ) ( type_73414cea_6dc1_4414_8335_f6b5258089a9_Class22 ( obj_38f4b03c_14cc_4b51_9b57_5733810818ac o )  ) ) ( type_73414cea_6dc1_4414_8335_f6b5258089a9_Class39 ( obj_38f4b03c_14cc_4b51_9b57_5733810818ac o )  ) )):named c1))
(assert (! (exists ((o Int)) (and (and (and (and (and (and (and (and (and ( type_73414cea_6dc1_4414_8335_f6b5258089a9_Class10 ( obj_38f4b03c_14cc_4b51_9b57_5733810818ac o )  )  ( type_73414cea_6dc1_4414_8335_f6b5258089a9_Class45 ( obj_38f4b03c_14cc_4b51_9b57_5733810818ac o )  ) ) ( type_73414cea_6dc1_4414_8335_f6b5258089a9_Class12 ( obj_38f4b03c_14cc_4b51_9b57_5733810818ac o )  ) ) ( type_73414cea_6dc1_4414_8335_f6b5258089a9_Class55 ( obj_38f4b03c_14cc_4b51_9b57_5733810818ac o )  ) ) ( type_73414cea_6dc1_4414_8335_f6b5258089a9_Class33 ( obj_38f4b03c_14cc_4b51_9b57_5733810818ac o )  ) ) ( type_73414cea_6dc1_4414_8335_f6b5258089a9_Class22 ( obj_38f4b03c_14cc_4b51_9b57_5733810818ac o )  ) ) ( type_73414cea_6dc1_4414_8335_f6b5258089a9_Class29 ( obj_38f4b03c_14cc_4b51_9b57_5733810818ac o )  ) ) ( type_73414cea_6dc1_4414_8335_f6b5258089a9_Class39 ( obj_38f4b03c_14cc_4b51_9b57_5733810818ac o )  ) ) ( type_73414cea_6dc1_4414_8335_f6b5258089a9_Class50 ( obj_38f4b03c_14cc_4b51_9b57_5733810818ac o )  ) ) ( type_73414cea_6dc1_4414_8335_f6b5258089a9_Class41 ( obj_38f4b03c_14cc_4b51_9b57_5733810818ac o )  ) )):named c2))
(assert (! (exists ((o Int)) ( type_73414cea_6dc1_4414_8335_f6b5258089a9_Class11 ( obj_38f4b03c_14cc_4b51_9b57_5733810818ac o )  ) ):named c3))
(assert (! (exists ((o Int)) (and (and (and ( type_73414cea_6dc1_4414_8335_f6b5258089a9_Class12 ( obj_38f4b03c_14cc_4b51_9b57_5733810818ac o )  )  ( type_73414cea_6dc1_4414_8335_f6b5258089a9_Class33 ( obj_38f4b03c_14cc_4b51_9b57_5733810818ac o )  ) ) ( type_73414cea_6dc1_4414_8335_f6b5258089a9_Class22 ( obj_38f4b03c_14cc_4b51_9b57_5733810818ac o )  ) ) ( type_73414cea_6dc1_4414_8335_f6b5258089a9_Class39 ( obj_38f4b03c_14cc_4b51_9b57_5733810818ac o )  ) )):named c4))
(assert (! (exists ((o Int)) (and (and (and (and (and (and (and (and (and ( type_73414cea_6dc1_4414_8335_f6b5258089a9_Class13 ( obj_38f4b03c_14cc_4b51_9b57_5733810818ac o )  )  ( type_73414cea_6dc1_4414_8335_f6b5258089a9_Class45 ( obj_38f4b03c_14cc_4b51_9b57_5733810818ac o )  ) ) ( type_73414cea_6dc1_4414_8335_f6b5258089a9_Class12 ( obj_38f4b03c_14cc_4b51_9b57_5733810818ac o )  ) ) ( type_73414cea_6dc1_4414_8335_f6b5258089a9_Class55 ( obj_38f4b03c_14cc_4b51_9b57_5733810818ac o )  ) ) ( type_73414cea_6dc1_4414_8335_f6b5258089a9_Class33 ( obj_38f4b03c_14cc_4b51_9b57_5733810818ac o )  ) ) ( type_73414cea_6dc1_4414_8335_f6b5258089a9_Class22 ( obj_38f4b03c_14cc_4b51_9b57_5733810818ac o )  ) ) ( type_73414cea_6dc1_4414_8335_f6b5258089a9_Class29 ( obj_38f4b03c_14cc_4b51_9b57_5733810818ac o )  ) ) ( type_73414cea_6dc1_4414_8335_f6b5258089a9_Class39 ( obj_38f4b03c_14cc_4b51_9b57_5733810818ac o )  ) ) ( type_73414cea_6dc1_4414_8335_f6b5258089a9_Class50 ( obj_38f4b03c_14cc_4b51_9b57_5733810818ac o )  ) ) ( type_73414cea_6dc1_4414_8335_f6b5258089a9_Class41 ( obj_38f4b03c_14cc_4b51_9b57_5733810818ac o )  ) )):named c5))
(assert (! (exists ((o Int)) (and (and (and (and (and (and (and (and (and ( type_73414cea_6dc1_4414_8335_f6b5258089a9_Class14 ( obj_38f4b03c_14cc_4b51_9b57_5733810818ac o )  )  ( type_73414cea_6dc1_4414_8335_f6b5258089a9_Class45 ( obj_38f4b03c_14cc_4b51_9b57_5733810818ac o )  ) ) ( type_73414cea_6dc1_4414_8335_f6b5258089a9_Class12 ( obj_38f4b03c_14cc_4b51_9b57_5733810818ac o )  ) ) ( type_73414cea_6dc1_4414_8335_f6b5258089a9_Class55 ( obj_38f4b03c_14cc_4b51_9b57_5733810818ac o )  ) ) ( type_73414cea_6dc1_4414_8335_f6b5258089a9_Class33 ( obj_38f4b03c_14cc_4b51_9b57_5733810818ac o )  ) ) ( type_73414cea_6dc1_4414_8335_f6b5258089a9_Class22 ( obj_38f4b03c_14cc_4b51_9b57_5733810818ac o )  ) ) ( type_73414cea_6dc1_4414_8335_f6b5258089a9_Class29 ( obj_38f4b03c_14cc_4b51_9b57_5733810818ac o )  ) ) ( type_73414cea_6dc1_4414_8335_f6b5258089a9_Class39 ( obj_38f4b03c_14cc_4b51_9b57_5733810818ac o )  ) ) ( type_73414cea_6dc1_4414_8335_f6b5258089a9_Class50 ( obj_38f4b03c_14cc_4b51_9b57_5733810818ac o )  ) ) ( type_73414cea_6dc1_4414_8335_f6b5258089a9_Class41 ( obj_38f4b03c_14cc_4b51_9b57_5733810818ac o )  ) )):named c6))
(assert (! (exists ((o Int)) ( type_73414cea_6dc1_4414_8335_f6b5258089a9_Class15 ( obj_38f4b03c_14cc_4b51_9b57_5733810818ac o )  ) ):named c7))
(assert (! (exists ((o Int)) (and (and (and (and (and ( type_73414cea_6dc1_4414_8335_f6b5258089a9_Class16 ( obj_38f4b03c_14cc_4b51_9b57_5733810818ac o )  )  ( type_73414cea_6dc1_4414_8335_f6b5258089a9_Class45 ( obj_38f4b03c_14cc_4b51_9b57_5733810818ac o )  ) ) ( type_73414cea_6dc1_4414_8335_f6b5258089a9_Class12 ( obj_38f4b03c_14cc_4b51_9b57_5733810818ac o )  ) ) ( type_73414cea_6dc1_4414_8335_f6b5258089a9_Class33 ( obj_38f4b03c_14cc_4b51_9b57_5733810818ac o )  ) ) ( type_73414cea_6dc1_4414_8335_f6b5258089a9_Class22 ( obj_38f4b03c_14cc_4b51_9b57_5733810818ac o )  ) ) ( type_73414cea_6dc1_4414_8335_f6b5258089a9_Class39 ( obj_38f4b03c_14cc_4b51_9b57_5733810818ac o )  ) )):named c8))
(assert (! (exists ((o Int)) ( type_73414cea_6dc1_4414_8335_f6b5258089a9_Class17 ( obj_38f4b03c_14cc_4b51_9b57_5733810818ac o )  ) ):named c9))
(assert (! (exists ((o Int)) (and (and (and ( type_73414cea_6dc1_4414_8335_f6b5258089a9_Class18 ( obj_38f4b03c_14cc_4b51_9b57_5733810818ac o )  )  ( type_73414cea_6dc1_4414_8335_f6b5258089a9_Class25 ( obj_38f4b03c_14cc_4b51_9b57_5733810818ac o )  ) ) ( type_73414cea_6dc1_4414_8335_f6b5258089a9_Class24 ( obj_38f4b03c_14cc_4b51_9b57_5733810818ac o )  ) ) ( type_73414cea_6dc1_4414_8335_f6b5258089a9_Class39 ( obj_38f4b03c_14cc_4b51_9b57_5733810818ac o )  ) )):named c10))
(assert (! (exists ((o Int)) (and (and (and (and (and (and (and (and (and ( type_73414cea_6dc1_4414_8335_f6b5258089a9_Class19 ( obj_38f4b03c_14cc_4b51_9b57_5733810818ac o )  )  ( type_73414cea_6dc1_4414_8335_f6b5258089a9_Class45 ( obj_38f4b03c_14cc_4b51_9b57_5733810818ac o )  ) ) ( type_73414cea_6dc1_4414_8335_f6b5258089a9_Class12 ( obj_38f4b03c_14cc_4b51_9b57_5733810818ac o )  ) ) ( type_73414cea_6dc1_4414_8335_f6b5258089a9_Class55 ( obj_38f4b03c_14cc_4b51_9b57_5733810818ac o )  ) ) ( type_73414cea_6dc1_4414_8335_f6b5258089a9_Class33 ( obj_38f4b03c_14cc_4b51_9b57_5733810818ac o )  ) ) ( type_73414cea_6dc1_4414_8335_f6b5258089a9_Class22 ( obj_38f4b03c_14cc_4b51_9b57_5733810818ac o )  ) ) ( type_73414cea_6dc1_4414_8335_f6b5258089a9_Class29 ( obj_38f4b03c_14cc_4b51_9b57_5733810818ac o )  ) ) ( type_73414cea_6dc1_4414_8335_f6b5258089a9_Class39 ( obj_38f4b03c_14cc_4b51_9b57_5733810818ac o )  ) ) ( type_73414cea_6dc1_4414_8335_f6b5258089a9_Class50 ( obj_38f4b03c_14cc_4b51_9b57_5733810818ac o )  ) ) ( type_73414cea_6dc1_4414_8335_f6b5258089a9_Class41 ( obj_38f4b03c_14cc_4b51_9b57_5733810818ac o )  ) )):named c11))
(assert (! (exists ((o Int)) ( type_73414cea_6dc1_4414_8335_f6b5258089a9_Class2 ( obj_38f4b03c_14cc_4b51_9b57_5733810818ac o )  ) ):named c12))
(assert (! (exists ((o Int)) ( type_73414cea_6dc1_4414_8335_f6b5258089a9_Class20 ( obj_38f4b03c_14cc_4b51_9b57_5733810818ac o )  ) ):named c13))
(assert (! (exists ((o Int)) (and (and (and (and (and (and (and (and (and ( type_73414cea_6dc1_4414_8335_f6b5258089a9_Class21 ( obj_38f4b03c_14cc_4b51_9b57_5733810818ac o )  )  ( type_73414cea_6dc1_4414_8335_f6b5258089a9_Class45 ( obj_38f4b03c_14cc_4b51_9b57_5733810818ac o )  ) ) ( type_73414cea_6dc1_4414_8335_f6b5258089a9_Class12 ( obj_38f4b03c_14cc_4b51_9b57_5733810818ac o )  ) ) ( type_73414cea_6dc1_4414_8335_f6b5258089a9_Class33 ( obj_38f4b03c_14cc_4b51_9b57_5733810818ac o )  ) ) ( type_73414cea_6dc1_4414_8335_f6b5258089a9_Class22 ( obj_38f4b03c_14cc_4b51_9b57_5733810818ac o )  ) ) ( type_73414cea_6dc1_4414_8335_f6b5258089a9_Class16 ( obj_38f4b03c_14cc_4b51_9b57_5733810818ac o )  ) ) ( type_73414cea_6dc1_4414_8335_f6b5258089a9_Class29 ( obj_38f4b03c_14cc_4b51_9b57_5733810818ac o )  ) ) ( type_73414cea_6dc1_4414_8335_f6b5258089a9_Class39 ( obj_38f4b03c_14cc_4b51_9b57_5733810818ac o )  ) ) ( type_73414cea_6dc1_4414_8335_f6b5258089a9_Class41 ( obj_38f4b03c_14cc_4b51_9b57_5733810818ac o )  ) ) ( type_73414cea_6dc1_4414_8335_f6b5258089a9_Class51 ( obj_38f4b03c_14cc_4b51_9b57_5733810818ac o )  ) )):named c14))
(assert (! (exists ((o Int)) (and ( type_73414cea_6dc1_4414_8335_f6b5258089a9_Class22 ( obj_38f4b03c_14cc_4b51_9b57_5733810818ac o )  )  ( type_73414cea_6dc1_4414_8335_f6b5258089a9_Class39 ( obj_38f4b03c_14cc_4b51_9b57_5733810818ac o )  ) )):named c15))
(assert (! (exists ((o Int)) (and (and (and (and ( type_73414cea_6dc1_4414_8335_f6b5258089a9_Class23 ( obj_38f4b03c_14cc_4b51_9b57_5733810818ac o )  )  ( type_73414cea_6dc1_4414_8335_f6b5258089a9_Class25 ( obj_38f4b03c_14cc_4b51_9b57_5733810818ac o )  ) ) ( type_73414cea_6dc1_4414_8335_f6b5258089a9_Class24 ( obj_38f4b03c_14cc_4b51_9b57_5733810818ac o )  ) ) ( type_73414cea_6dc1_4414_8335_f6b5258089a9_Class39 ( obj_38f4b03c_14cc_4b51_9b57_5733810818ac o )  ) ) ( type_73414cea_6dc1_4414_8335_f6b5258089a9_Class5 ( obj_38f4b03c_14cc_4b51_9b57_5733810818ac o )  ) )):named c16))
(assert (! (exists ((o Int)) (and (and ( type_73414cea_6dc1_4414_8335_f6b5258089a9_Class24 ( obj_38f4b03c_14cc_4b51_9b57_5733810818ac o )  )  ( type_73414cea_6dc1_4414_8335_f6b5258089a9_Class25 ( obj_38f4b03c_14cc_4b51_9b57_5733810818ac o )  ) ) ( type_73414cea_6dc1_4414_8335_f6b5258089a9_Class39 ( obj_38f4b03c_14cc_4b51_9b57_5733810818ac o )  ) )):named c17))
(assert (! (exists ((o Int)) (and ( type_73414cea_6dc1_4414_8335_f6b5258089a9_Class25 ( obj_38f4b03c_14cc_4b51_9b57_5733810818ac o )  )  ( type_73414cea_6dc1_4414_8335_f6b5258089a9_Class39 ( obj_38f4b03c_14cc_4b51_9b57_5733810818ac o )  ) )):named c18))
(assert (! (exists ((o Int)) ( type_73414cea_6dc1_4414_8335_f6b5258089a9_Class26 ( obj_38f4b03c_14cc_4b51_9b57_5733810818ac o )  ) ):named c19))
(assert (! (exists ((o Int)) ( type_73414cea_6dc1_4414_8335_f6b5258089a9_Class27 ( obj_38f4b03c_14cc_4b51_9b57_5733810818ac o )  ) ):named c20))
(assert (! (exists ((o Int)) (and (and (and (and (and (and (and ( type_73414cea_6dc1_4414_8335_f6b5258089a9_Class28 ( obj_38f4b03c_14cc_4b51_9b57_5733810818ac o )  )  ( type_73414cea_6dc1_4414_8335_f6b5258089a9_Class45 ( obj_38f4b03c_14cc_4b51_9b57_5733810818ac o )  ) ) ( type_73414cea_6dc1_4414_8335_f6b5258089a9_Class12 ( obj_38f4b03c_14cc_4b51_9b57_5733810818ac o )  ) ) ( type_73414cea_6dc1_4414_8335_f6b5258089a9_Class33 ( obj_38f4b03c_14cc_4b51_9b57_5733810818ac o )  ) ) ( type_73414cea_6dc1_4414_8335_f6b5258089a9_Class22 ( obj_38f4b03c_14cc_4b51_9b57_5733810818ac o )  ) ) ( type_73414cea_6dc1_4414_8335_f6b5258089a9_Class29 ( obj_38f4b03c_14cc_4b51_9b57_5733810818ac o )  ) ) ( type_73414cea_6dc1_4414_8335_f6b5258089a9_Class39 ( obj_38f4b03c_14cc_4b51_9b57_5733810818ac o )  ) ) ( type_73414cea_6dc1_4414_8335_f6b5258089a9_Class41 ( obj_38f4b03c_14cc_4b51_9b57_5733810818ac o )  ) )):named c21))
(assert (! (exists ((o Int)) (and (and (and (and (and (and ( type_73414cea_6dc1_4414_8335_f6b5258089a9_Class29 ( obj_38f4b03c_14cc_4b51_9b57_5733810818ac o )  )  ( type_73414cea_6dc1_4414_8335_f6b5258089a9_Class45 ( obj_38f4b03c_14cc_4b51_9b57_5733810818ac o )  ) ) ( type_73414cea_6dc1_4414_8335_f6b5258089a9_Class12 ( obj_38f4b03c_14cc_4b51_9b57_5733810818ac o )  ) ) ( type_73414cea_6dc1_4414_8335_f6b5258089a9_Class33 ( obj_38f4b03c_14cc_4b51_9b57_5733810818ac o )  ) ) ( type_73414cea_6dc1_4414_8335_f6b5258089a9_Class22 ( obj_38f4b03c_14cc_4b51_9b57_5733810818ac o )  ) ) ( type_73414cea_6dc1_4414_8335_f6b5258089a9_Class39 ( obj_38f4b03c_14cc_4b51_9b57_5733810818ac o )  ) ) ( type_73414cea_6dc1_4414_8335_f6b5258089a9_Class41 ( obj_38f4b03c_14cc_4b51_9b57_5733810818ac o )  ) )):named c22))
(assert (! (exists ((o Int)) (and (and (and ( type_73414cea_6dc1_4414_8335_f6b5258089a9_Class3 ( obj_38f4b03c_14cc_4b51_9b57_5733810818ac o )  )  ( type_73414cea_6dc1_4414_8335_f6b5258089a9_Class25 ( obj_38f4b03c_14cc_4b51_9b57_5733810818ac o )  ) ) ( type_73414cea_6dc1_4414_8335_f6b5258089a9_Class24 ( obj_38f4b03c_14cc_4b51_9b57_5733810818ac o )  ) ) ( type_73414cea_6dc1_4414_8335_f6b5258089a9_Class39 ( obj_38f4b03c_14cc_4b51_9b57_5733810818ac o )  ) )):named c23))
(assert (! (exists ((o Int)) (and ( type_73414cea_6dc1_4414_8335_f6b5258089a9_Class30 ( obj_38f4b03c_14cc_4b51_9b57_5733810818ac o )  )  ( type_73414cea_6dc1_4414_8335_f6b5258089a9_Class39 ( obj_38f4b03c_14cc_4b51_9b57_5733810818ac o )  ) )):named c24))
(assert (! (exists ((o Int)) (and (and (and (and (and ( type_73414cea_6dc1_4414_8335_f6b5258089a9_Class31 ( obj_38f4b03c_14cc_4b51_9b57_5733810818ac o )  )  ( type_73414cea_6dc1_4414_8335_f6b5258089a9_Class45 ( obj_38f4b03c_14cc_4b51_9b57_5733810818ac o )  ) ) ( type_73414cea_6dc1_4414_8335_f6b5258089a9_Class12 ( obj_38f4b03c_14cc_4b51_9b57_5733810818ac o )  ) ) ( type_73414cea_6dc1_4414_8335_f6b5258089a9_Class33 ( obj_38f4b03c_14cc_4b51_9b57_5733810818ac o )  ) ) ( type_73414cea_6dc1_4414_8335_f6b5258089a9_Class22 ( obj_38f4b03c_14cc_4b51_9b57_5733810818ac o )  ) ) ( type_73414cea_6dc1_4414_8335_f6b5258089a9_Class39 ( obj_38f4b03c_14cc_4b51_9b57_5733810818ac o )  ) )):named c25))
(assert (! (exists ((o Int)) ( type_73414cea_6dc1_4414_8335_f6b5258089a9_Class32 ( obj_38f4b03c_14cc_4b51_9b57_5733810818ac o )  ) ):named c26))
(assert (! (exists ((o Int)) (and (and ( type_73414cea_6dc1_4414_8335_f6b5258089a9_Class33 ( obj_38f4b03c_14cc_4b51_9b57_5733810818ac o )  )  ( type_73414cea_6dc1_4414_8335_f6b5258089a9_Class22 ( obj_38f4b03c_14cc_4b51_9b57_5733810818ac o )  ) ) ( type_73414cea_6dc1_4414_8335_f6b5258089a9_Class39 ( obj_38f4b03c_14cc_4b51_9b57_5733810818ac o )  ) )):named c27))
(assert (! (exists ((o Int)) (and (and (and ( type_73414cea_6dc1_4414_8335_f6b5258089a9_Class34 ( obj_38f4b03c_14cc_4b51_9b57_5733810818ac o )  )  ( type_73414cea_6dc1_4414_8335_f6b5258089a9_Class25 ( obj_38f4b03c_14cc_4b51_9b57_5733810818ac o )  ) ) ( type_73414cea_6dc1_4414_8335_f6b5258089a9_Class24 ( obj_38f4b03c_14cc_4b51_9b57_5733810818ac o )  ) ) ( type_73414cea_6dc1_4414_8335_f6b5258089a9_Class39 ( obj_38f4b03c_14cc_4b51_9b57_5733810818ac o )  ) )):named c28))
(assert (! (exists ((o Int)) (and (and ( type_73414cea_6dc1_4414_8335_f6b5258089a9_Class35 ( obj_38f4b03c_14cc_4b51_9b57_5733810818ac o )  )  ( type_73414cea_6dc1_4414_8335_f6b5258089a9_Class39 ( obj_38f4b03c_14cc_4b51_9b57_5733810818ac o )  ) ) ( type_73414cea_6dc1_4414_8335_f6b5258089a9_Class30 ( obj_38f4b03c_14cc_4b51_9b57_5733810818ac o )  ) )):named c29))
(assert (! (exists ((o Int)) ( type_73414cea_6dc1_4414_8335_f6b5258089a9_Class36 ( obj_38f4b03c_14cc_4b51_9b57_5733810818ac o )  ) ):named c30))
(assert (! (exists ((o Int)) ( type_73414cea_6dc1_4414_8335_f6b5258089a9_Class37 ( obj_38f4b03c_14cc_4b51_9b57_5733810818ac o )  ) ):named c31))
(assert (! (exists ((o Int)) ( type_73414cea_6dc1_4414_8335_f6b5258089a9_Class38 ( obj_38f4b03c_14cc_4b51_9b57_5733810818ac o )  ) ):named c32))
(assert (! (exists ((o Int)) ( type_73414cea_6dc1_4414_8335_f6b5258089a9_Class39 ( obj_38f4b03c_14cc_4b51_9b57_5733810818ac o )  ) ):named c33))
(assert (! (exists ((o Int)) ( type_73414cea_6dc1_4414_8335_f6b5258089a9_Class4 ( obj_38f4b03c_14cc_4b51_9b57_5733810818ac o )  ) ):named c34))
(assert (! (exists ((o Int)) (and (and (and (and (and (and (and (and (and ( type_73414cea_6dc1_4414_8335_f6b5258089a9_Class40 ( obj_38f4b03c_14cc_4b51_9b57_5733810818ac o )  )  ( type_73414cea_6dc1_4414_8335_f6b5258089a9_Class45 ( obj_38f4b03c_14cc_4b51_9b57_5733810818ac o )  ) ) ( type_73414cea_6dc1_4414_8335_f6b5258089a9_Class12 ( obj_38f4b03c_14cc_4b51_9b57_5733810818ac o )  ) ) ( type_73414cea_6dc1_4414_8335_f6b5258089a9_Class55 ( obj_38f4b03c_14cc_4b51_9b57_5733810818ac o )  ) ) ( type_73414cea_6dc1_4414_8335_f6b5258089a9_Class33 ( obj_38f4b03c_14cc_4b51_9b57_5733810818ac o )  ) ) ( type_73414cea_6dc1_4414_8335_f6b5258089a9_Class22 ( obj_38f4b03c_14cc_4b51_9b57_5733810818ac o )  ) ) ( type_73414cea_6dc1_4414_8335_f6b5258089a9_Class29 ( obj_38f4b03c_14cc_4b51_9b57_5733810818ac o )  ) ) ( type_73414cea_6dc1_4414_8335_f6b5258089a9_Class39 ( obj_38f4b03c_14cc_4b51_9b57_5733810818ac o )  ) ) ( type_73414cea_6dc1_4414_8335_f6b5258089a9_Class50 ( obj_38f4b03c_14cc_4b51_9b57_5733810818ac o )  ) ) ( type_73414cea_6dc1_4414_8335_f6b5258089a9_Class41 ( obj_38f4b03c_14cc_4b51_9b57_5733810818ac o )  ) )):named c35))
(assert (! (exists ((o Int)) (and (and (and (and (and ( type_73414cea_6dc1_4414_8335_f6b5258089a9_Class41 ( obj_38f4b03c_14cc_4b51_9b57_5733810818ac o )  )  ( type_73414cea_6dc1_4414_8335_f6b5258089a9_Class45 ( obj_38f4b03c_14cc_4b51_9b57_5733810818ac o )  ) ) ( type_73414cea_6dc1_4414_8335_f6b5258089a9_Class12 ( obj_38f4b03c_14cc_4b51_9b57_5733810818ac o )  ) ) ( type_73414cea_6dc1_4414_8335_f6b5258089a9_Class33 ( obj_38f4b03c_14cc_4b51_9b57_5733810818ac o )  ) ) ( type_73414cea_6dc1_4414_8335_f6b5258089a9_Class22 ( obj_38f4b03c_14cc_4b51_9b57_5733810818ac o )  ) ) ( type_73414cea_6dc1_4414_8335_f6b5258089a9_Class39 ( obj_38f4b03c_14cc_4b51_9b57_5733810818ac o )  ) )):named c36))
(assert (! (exists ((o Int)) (and ( type_73414cea_6dc1_4414_8335_f6b5258089a9_Class42 ( obj_38f4b03c_14cc_4b51_9b57_5733810818ac o )  )  ( type_73414cea_6dc1_4414_8335_f6b5258089a9_Class39 ( obj_38f4b03c_14cc_4b51_9b57_5733810818ac o )  ) )):named c37))
(assert (! (exists ((o Int)) ( type_73414cea_6dc1_4414_8335_f6b5258089a9_Class43 ( obj_38f4b03c_14cc_4b51_9b57_5733810818ac o )  ) ):named c38))
(assert (! (exists ((o Int)) (and (and (and (and (and (and (and ( type_73414cea_6dc1_4414_8335_f6b5258089a9_Class44 ( obj_38f4b03c_14cc_4b51_9b57_5733810818ac o )  )  ( type_73414cea_6dc1_4414_8335_f6b5258089a9_Class45 ( obj_38f4b03c_14cc_4b51_9b57_5733810818ac o )  ) ) ( type_73414cea_6dc1_4414_8335_f6b5258089a9_Class12 ( obj_38f4b03c_14cc_4b51_9b57_5733810818ac o )  ) ) ( type_73414cea_6dc1_4414_8335_f6b5258089a9_Class33 ( obj_38f4b03c_14cc_4b51_9b57_5733810818ac o )  ) ) ( type_73414cea_6dc1_4414_8335_f6b5258089a9_Class22 ( obj_38f4b03c_14cc_4b51_9b57_5733810818ac o )  ) ) ( type_73414cea_6dc1_4414_8335_f6b5258089a9_Class29 ( obj_38f4b03c_14cc_4b51_9b57_5733810818ac o )  ) ) ( type_73414cea_6dc1_4414_8335_f6b5258089a9_Class39 ( obj_38f4b03c_14cc_4b51_9b57_5733810818ac o )  ) ) ( type_73414cea_6dc1_4414_8335_f6b5258089a9_Class41 ( obj_38f4b03c_14cc_4b51_9b57_5733810818ac o )  ) )):named c39))
(assert (! (exists ((o Int)) (and (and (and (and ( type_73414cea_6dc1_4414_8335_f6b5258089a9_Class45 ( obj_38f4b03c_14cc_4b51_9b57_5733810818ac o )  )  ( type_73414cea_6dc1_4414_8335_f6b5258089a9_Class12 ( obj_38f4b03c_14cc_4b51_9b57_5733810818ac o )  ) ) ( type_73414cea_6dc1_4414_8335_f6b5258089a9_Class33 ( obj_38f4b03c_14cc_4b51_9b57_5733810818ac o )  ) ) ( type_73414cea_6dc1_4414_8335_f6b5258089a9_Class22 ( obj_38f4b03c_14cc_4b51_9b57_5733810818ac o )  ) ) ( type_73414cea_6dc1_4414_8335_f6b5258089a9_Class39 ( obj_38f4b03c_14cc_4b51_9b57_5733810818ac o )  ) )):named c40))
(assert (! (exists ((o Int)) (and (and ( type_73414cea_6dc1_4414_8335_f6b5258089a9_Class46 ( obj_38f4b03c_14cc_4b51_9b57_5733810818ac o )  )  ( type_73414cea_6dc1_4414_8335_f6b5258089a9_Class39 ( obj_38f4b03c_14cc_4b51_9b57_5733810818ac o )  ) ) ( type_73414cea_6dc1_4414_8335_f6b5258089a9_Class5 ( obj_38f4b03c_14cc_4b51_9b57_5733810818ac o )  ) )):named c41))
(assert (! (exists ((o Int)) ( type_73414cea_6dc1_4414_8335_f6b5258089a9_Class47 ( obj_38f4b03c_14cc_4b51_9b57_5733810818ac o )  ) ):named c42))
(assert (! (exists ((o Int)) (and (and (and (and (and (and (and (and (and ( type_73414cea_6dc1_4414_8335_f6b5258089a9_Class48 ( obj_38f4b03c_14cc_4b51_9b57_5733810818ac o )  )  ( type_73414cea_6dc1_4414_8335_f6b5258089a9_Class45 ( obj_38f4b03c_14cc_4b51_9b57_5733810818ac o )  ) ) ( type_73414cea_6dc1_4414_8335_f6b5258089a9_Class12 ( obj_38f4b03c_14cc_4b51_9b57_5733810818ac o )  ) ) ( type_73414cea_6dc1_4414_8335_f6b5258089a9_Class55 ( obj_38f4b03c_14cc_4b51_9b57_5733810818ac o )  ) ) ( type_73414cea_6dc1_4414_8335_f6b5258089a9_Class33 ( obj_38f4b03c_14cc_4b51_9b57_5733810818ac o )  ) ) ( type_73414cea_6dc1_4414_8335_f6b5258089a9_Class22 ( obj_38f4b03c_14cc_4b51_9b57_5733810818ac o )  ) ) ( type_73414cea_6dc1_4414_8335_f6b5258089a9_Class29 ( obj_38f4b03c_14cc_4b51_9b57_5733810818ac o )  ) ) ( type_73414cea_6dc1_4414_8335_f6b5258089a9_Class39 ( obj_38f4b03c_14cc_4b51_9b57_5733810818ac o )  ) ) ( type_73414cea_6dc1_4414_8335_f6b5258089a9_Class50 ( obj_38f4b03c_14cc_4b51_9b57_5733810818ac o )  ) ) ( type_73414cea_6dc1_4414_8335_f6b5258089a9_Class41 ( obj_38f4b03c_14cc_4b51_9b57_5733810818ac o )  ) )):named c43))
(assert (! (exists ((o Int)) (and (and (and (and (and (and (and (and (and ( type_73414cea_6dc1_4414_8335_f6b5258089a9_Class49 ( obj_38f4b03c_14cc_4b51_9b57_5733810818ac o )  )  ( type_73414cea_6dc1_4414_8335_f6b5258089a9_Class45 ( obj_38f4b03c_14cc_4b51_9b57_5733810818ac o )  ) ) ( type_73414cea_6dc1_4414_8335_f6b5258089a9_Class12 ( obj_38f4b03c_14cc_4b51_9b57_5733810818ac o )  ) ) ( type_73414cea_6dc1_4414_8335_f6b5258089a9_Class55 ( obj_38f4b03c_14cc_4b51_9b57_5733810818ac o )  ) ) ( type_73414cea_6dc1_4414_8335_f6b5258089a9_Class33 ( obj_38f4b03c_14cc_4b51_9b57_5733810818ac o )  ) ) ( type_73414cea_6dc1_4414_8335_f6b5258089a9_Class22 ( obj_38f4b03c_14cc_4b51_9b57_5733810818ac o )  ) ) ( type_73414cea_6dc1_4414_8335_f6b5258089a9_Class29 ( obj_38f4b03c_14cc_4b51_9b57_5733810818ac o )  ) ) ( type_73414cea_6dc1_4414_8335_f6b5258089a9_Class39 ( obj_38f4b03c_14cc_4b51_9b57_5733810818ac o )  ) ) ( type_73414cea_6dc1_4414_8335_f6b5258089a9_Class50 ( obj_38f4b03c_14cc_4b51_9b57_5733810818ac o )  ) ) ( type_73414cea_6dc1_4414_8335_f6b5258089a9_Class41 ( obj_38f4b03c_14cc_4b51_9b57_5733810818ac o )  ) )):named c44))
(assert (! (exists ((o Int)) (and ( type_73414cea_6dc1_4414_8335_f6b5258089a9_Class5 ( obj_38f4b03c_14cc_4b51_9b57_5733810818ac o )  )  ( type_73414cea_6dc1_4414_8335_f6b5258089a9_Class39 ( obj_38f4b03c_14cc_4b51_9b57_5733810818ac o )  ) )):named c45))
(assert (! (exists ((o Int)) (and (and (and (and (and (and (and (and ( type_73414cea_6dc1_4414_8335_f6b5258089a9_Class50 ( obj_38f4b03c_14cc_4b51_9b57_5733810818ac o )  )  ( type_73414cea_6dc1_4414_8335_f6b5258089a9_Class45 ( obj_38f4b03c_14cc_4b51_9b57_5733810818ac o )  ) ) ( type_73414cea_6dc1_4414_8335_f6b5258089a9_Class12 ( obj_38f4b03c_14cc_4b51_9b57_5733810818ac o )  ) ) ( type_73414cea_6dc1_4414_8335_f6b5258089a9_Class55 ( obj_38f4b03c_14cc_4b51_9b57_5733810818ac o )  ) ) ( type_73414cea_6dc1_4414_8335_f6b5258089a9_Class33 ( obj_38f4b03c_14cc_4b51_9b57_5733810818ac o )  ) ) ( type_73414cea_6dc1_4414_8335_f6b5258089a9_Class22 ( obj_38f4b03c_14cc_4b51_9b57_5733810818ac o )  ) ) ( type_73414cea_6dc1_4414_8335_f6b5258089a9_Class29 ( obj_38f4b03c_14cc_4b51_9b57_5733810818ac o )  ) ) ( type_73414cea_6dc1_4414_8335_f6b5258089a9_Class39 ( obj_38f4b03c_14cc_4b51_9b57_5733810818ac o )  ) ) ( type_73414cea_6dc1_4414_8335_f6b5258089a9_Class41 ( obj_38f4b03c_14cc_4b51_9b57_5733810818ac o )  ) )):named c46))
(assert (! (exists ((o Int)) (and (and (and (and (and (and ( type_73414cea_6dc1_4414_8335_f6b5258089a9_Class51 ( obj_38f4b03c_14cc_4b51_9b57_5733810818ac o )  )  ( type_73414cea_6dc1_4414_8335_f6b5258089a9_Class45 ( obj_38f4b03c_14cc_4b51_9b57_5733810818ac o )  ) ) ( type_73414cea_6dc1_4414_8335_f6b5258089a9_Class12 ( obj_38f4b03c_14cc_4b51_9b57_5733810818ac o )  ) ) ( type_73414cea_6dc1_4414_8335_f6b5258089a9_Class33 ( obj_38f4b03c_14cc_4b51_9b57_5733810818ac o )  ) ) ( type_73414cea_6dc1_4414_8335_f6b5258089a9_Class22 ( obj_38f4b03c_14cc_4b51_9b57_5733810818ac o )  ) ) ( type_73414cea_6dc1_4414_8335_f6b5258089a9_Class16 ( obj_38f4b03c_14cc_4b51_9b57_5733810818ac o )  ) ) ( type_73414cea_6dc1_4414_8335_f6b5258089a9_Class39 ( obj_38f4b03c_14cc_4b51_9b57_5733810818ac o )  ) )):named c47))
(assert (! (exists ((o Int)) (and (and (and (and (and ( type_73414cea_6dc1_4414_8335_f6b5258089a9_Class52 ( obj_38f4b03c_14cc_4b51_9b57_5733810818ac o )  )  ( type_73414cea_6dc1_4414_8335_f6b5258089a9_Class45 ( obj_38f4b03c_14cc_4b51_9b57_5733810818ac o )  ) ) ( type_73414cea_6dc1_4414_8335_f6b5258089a9_Class12 ( obj_38f4b03c_14cc_4b51_9b57_5733810818ac o )  ) ) ( type_73414cea_6dc1_4414_8335_f6b5258089a9_Class33 ( obj_38f4b03c_14cc_4b51_9b57_5733810818ac o )  ) ) ( type_73414cea_6dc1_4414_8335_f6b5258089a9_Class22 ( obj_38f4b03c_14cc_4b51_9b57_5733810818ac o )  ) ) ( type_73414cea_6dc1_4414_8335_f6b5258089a9_Class39 ( obj_38f4b03c_14cc_4b51_9b57_5733810818ac o )  ) )):named c48))
(assert (! (exists ((o Int)) ( type_73414cea_6dc1_4414_8335_f6b5258089a9_Class53 ( obj_38f4b03c_14cc_4b51_9b57_5733810818ac o )  ) ):named c49))
(assert (! (exists ((o Int)) ( type_73414cea_6dc1_4414_8335_f6b5258089a9_Class54 ( obj_38f4b03c_14cc_4b51_9b57_5733810818ac o )  ) ):named c50))
(assert (! (exists ((o Int)) (and (and (and (and (and (and (and ( type_73414cea_6dc1_4414_8335_f6b5258089a9_Class55 ( obj_38f4b03c_14cc_4b51_9b57_5733810818ac o )  )  ( type_73414cea_6dc1_4414_8335_f6b5258089a9_Class45 ( obj_38f4b03c_14cc_4b51_9b57_5733810818ac o )  ) ) ( type_73414cea_6dc1_4414_8335_f6b5258089a9_Class12 ( obj_38f4b03c_14cc_4b51_9b57_5733810818ac o )  ) ) ( type_73414cea_6dc1_4414_8335_f6b5258089a9_Class33 ( obj_38f4b03c_14cc_4b51_9b57_5733810818ac o )  ) ) ( type_73414cea_6dc1_4414_8335_f6b5258089a9_Class22 ( obj_38f4b03c_14cc_4b51_9b57_5733810818ac o )  ) ) ( type_73414cea_6dc1_4414_8335_f6b5258089a9_Class29 ( obj_38f4b03c_14cc_4b51_9b57_5733810818ac o )  ) ) ( type_73414cea_6dc1_4414_8335_f6b5258089a9_Class39 ( obj_38f4b03c_14cc_4b51_9b57_5733810818ac o )  ) ) ( type_73414cea_6dc1_4414_8335_f6b5258089a9_Class41 ( obj_38f4b03c_14cc_4b51_9b57_5733810818ac o )  ) )):named c51))
(assert (! (exists ((o Int)) ( type_73414cea_6dc1_4414_8335_f6b5258089a9_Class6 ( obj_38f4b03c_14cc_4b51_9b57_5733810818ac o )  ) ):named c52))
(assert (! (exists ((o Int)) (and (and (and (and (and (and (and (and (and ( type_73414cea_6dc1_4414_8335_f6b5258089a9_Class7 ( obj_38f4b03c_14cc_4b51_9b57_5733810818ac o )  )  ( type_73414cea_6dc1_4414_8335_f6b5258089a9_Class45 ( obj_38f4b03c_14cc_4b51_9b57_5733810818ac o )  ) ) ( type_73414cea_6dc1_4414_8335_f6b5258089a9_Class12 ( obj_38f4b03c_14cc_4b51_9b57_5733810818ac o )  ) ) ( type_73414cea_6dc1_4414_8335_f6b5258089a9_Class55 ( obj_38f4b03c_14cc_4b51_9b57_5733810818ac o )  ) ) ( type_73414cea_6dc1_4414_8335_f6b5258089a9_Class33 ( obj_38f4b03c_14cc_4b51_9b57_5733810818ac o )  ) ) ( type_73414cea_6dc1_4414_8335_f6b5258089a9_Class22 ( obj_38f4b03c_14cc_4b51_9b57_5733810818ac o )  ) ) ( type_73414cea_6dc1_4414_8335_f6b5258089a9_Class29 ( obj_38f4b03c_14cc_4b51_9b57_5733810818ac o )  ) ) ( type_73414cea_6dc1_4414_8335_f6b5258089a9_Class39 ( obj_38f4b03c_14cc_4b51_9b57_5733810818ac o )  ) ) ( type_73414cea_6dc1_4414_8335_f6b5258089a9_Class50 ( obj_38f4b03c_14cc_4b51_9b57_5733810818ac o )  ) ) ( type_73414cea_6dc1_4414_8335_f6b5258089a9_Class41 ( obj_38f4b03c_14cc_4b51_9b57_5733810818ac o )  ) )):named c53))
(assert (! (exists ((o Int)) (and ( type_73414cea_6dc1_4414_8335_f6b5258089a9_Class8 ( obj_38f4b03c_14cc_4b51_9b57_5733810818ac o )  )  ( type_73414cea_6dc1_4414_8335_f6b5258089a9_Class39 ( obj_38f4b03c_14cc_4b51_9b57_5733810818ac o )  ) )):named c54))
(assert (! (exists ((o Int)) ( type_73414cea_6dc1_4414_8335_f6b5258089a9_Class9 ( obj_38f4b03c_14cc_4b51_9b57_5733810818ac o )  ) ):named c55))

 ;end of formula 